75
[7,8,9,10,11,12,13,14,15,16,17,18,19,20,21,22,23,24,25,26,27,28,29,30,31,32,33,34,35,36,37,38,39,40,41,42,43,44,45,46,47,48,49,50,51,52]
[21,31,24,18,19,30,21,22,18,21,28,17,14,30,18,22,18,18,19,12,22,18,21,20,23,20,20,22,22,32,28,25,20,19,24,17,21,23,21,31,23,18,19,23,25,22]
